c instance by G2
c solution = 110011010111011110100
c Known solution cost is 984 
p cnf 21 30
w 39 24 27 17 18 51 84 42 97 89 70 73 26 24 46 90 59 7 82 5 14
2 -9 -21 0
-7 -11 20 0
19 11 8 0
16 -3 5 0
-4 -16 -20 0
18 11 -6 0
-9 -15 8 0
5 3 -4 0
5 -11 -6 0
13 -17 8 0
9 20 19 0
3 -19 10 0
2 13 19 0
1 -5 21 0
-19 -13 -11 0
-12 -6 17 0
-3 -9 2 0
7 -20 -11 0
-10 -19 -21 0
-8 16 13 0
3 -11 12 0
-2 -11 15 0
-3 2 13 0
3 6 -10 0
14 7 -12 0
-18 -19 -14 0
-15 -14 -3 0
-5 2 -15 0
-5 -19 -9 0
-4 21 -2 0
